p cnf 161 609
119 122 0
68 71 73 76 0
53 56 64 0
47 54 154 158 0
83 88 0
28 40 60 89 145 0
93 100 0
62 67 97 105 0
74 90 127 0
34 55 91 0
50 79 133 0
45 49 81 84 0
136 139 0
61 94 0
35 38 78 0
42 69 0
29 31 75 0
51 65 0
58 86 0
26 27 41 0
32 98 0
80 95 99 102 103 104 0
36 106 107 109 110 0
43 112 0
115 116 118 121 124 0
77 126 128 129 0
30 72 92 0
57 132 134 0
48 135 0
39 137 140 0
63 96 151 0
37 108 0
44 113 0
117 120 123 125 0
87 142 144 0
33 59 146 0
111 147 0
-60 -138 0
-60 -100 0
-100 -138 0
-34 -148 0
-34 -50 0
-50 -148 0
-72 -126 0
-126 -149 0
-72 -149 0
-34 -60 0
-60 -126 0
-34 -126 0
-138 -148 0
-72 -138 0
-72 -148 0
-50 -100 0
-100 -149 0
-50 -149 0
-83 -89 0
-67 -83 0
-83 -150 0
-83 -90 0
-67 -89 0
-89 -150 0
-89 -90 0
-67 -150 0
-67 -90 0
-90 -150 0
-38 -152 0
-152 -153 0
-75 -152 0
-52 -152 0
-38 -153 0
-38 -75 0
-38 -52 0
-75 -153 0
-52 -153 0
-52 -75 0
-86 -155 0
-86 -99 0
-86 -106 0
-86 -115 0
-99 -155 0
-106 -155 0
-115 -155 0
-99 -106 0
-99 -115 0
-106 -115 0
-128 -157 0
-57 -157 0
-48 -157 0
-39 -157 0
-57 -128 0
-48 -128 0
-39 -128 0
-48 -57 0
-39 -57 0
-39 -48 0
-66 -142 0
-59 -66 0
-66 -101 0
-66 -111 0
-59 -142 0
-101 -142 0
-111 -142 0
-59 -101 0
-59 -111 0
-101 -111 0
-83 -152 0
-83 -86 0
-83 -157 0
-66 -83 0
-86 -152 0
-152 -157 0
-66 -152 0
-86 -157 0
-66 -86 0
-66 -157 0
-38 -89 0
-89 -155 0
-89 -128 0
-89 -142 0
-38 -155 0
-38 -128 0
-38 -142 0
-128 -155 0
-142 -155 0
-128 -142 0
-67 -153 0
-67 -99 0
-57 -67 0
-59 -67 0
-99 -153 0
-57 -153 0
-59 -153 0
-57 -99 0
-59 -99 0
-57 -59 0
-75 -150 0
-106 -150 0
-48 -150 0
-101 -150 0
-75 -106 0
-48 -75 0
-75 -101 0
-48 -106 0
-101 -106 0
-48 -101 0
-52 -90 0
-90 -115 0
-39 -90 0
-90 -111 0
-52 -115 0
-39 -52 0
-52 -111 0
-39 -115 0
-111 -115 0
-39 -111 0
-28 -88 0
-62 -88 0
-28 -62 0
-91 -130 0
-81 -130 0
-81 -91 0
-58 -159 0
-58 -80 0
-80 -159 0
-88 -130 0
-58 -88 0
-58 -130 0
-28 -91 0
-28 -159 0
-91 -159 0
-62 -81 0
-62 -80 0
-80 -81 0
-73 -160 0
-54 -160 0
-54 -73 0
-84 -133 0
-61 -133 0
-61 -84 0
-132 -161 0
-137 -161 0
-132 -137 0
-133 -160 0
-160 -161 0
-133 -161 0
-73 -84 0
-73 -132 0
-84 -132 0
-54 -61 0
-54 -137 0
-61 -137 0
-42 -78 0
-25 -78 0
-25 -42 0
-24 -26 0
-24 -116 0
-26 -116 0
-92 -129 0
-129 -140 0
-92 -140 0
-24 -78 0
-78 -129 0
-24 -129 0
-26 -42 0
-42 -92 0
-26 -92 0
-25 -116 0
-25 -140 0
-116 -140 0
-76 -119 0
-53 -119 0
-85 -119 0
-119 -154 0
-53 -76 0
-76 -85 0
-76 -154 0
-53 -85 0
-53 -154 0
-85 -154 0
-105 -145 0
-114 -145 0
-145 -156 0
-127 -145 0
-105 -114 0
-105 -156 0
-105 -127 0
-114 -156 0
-114 -127 0
-127 -156 0
-23 -35 0
-31 -35 0
-35 -65 0
-35 -141 0
-23 -31 0
-23 -65 0
-23 -141 0
-31 -65 0
-31 -141 0
-65 -141 0
-22 -102 0
-22 -110 0
-22 -43 0
-22 -118 0
-102 -110 0
-43 -102 0
-102 -118 0
-43 -110 0
-110 -118 0
-43 -118 0
-63 -117 0
-21 -63 0
-20 -63 0
-19 -63 0
-21 -117 0
-20 -117 0
-19 -117 0
-20 -21 0
-19 -21 0
-19 -20 0
-119 -145 0
-35 -119 0
-22 -119 0
-63 -119 0
-35 -145 0
-22 -145 0
-63 -145 0
-22 -35 0
-35 -63 0
-22 -63 0
-76 -105 0
-23 -76 0
-76 -102 0
-76 -117 0
-23 -105 0
-102 -105 0
-105 -117 0
-23 -102 0
-23 -117 0
-102 -117 0
-53 -114 0
-31 -53 0
-53 -110 0
-21 -53 0
-31 -114 0
-110 -114 0
-21 -114 0
-31 -110 0
-21 -31 0
-21 -110 0
-85 -156 0
-65 -85 0
-43 -85 0
-20 -85 0
-65 -156 0
-43 -156 0
-20 -156 0
-43 -65 0
-20 -65 0
-20 -43 0
-127 -154 0
-141 -154 0
-118 -154 0
-19 -154 0
-127 -141 0
-118 -127 0
-19 -127 0
-118 -141 0
-19 -141 0
-19 -118 0
-18 -122 0
-71 -122 0
-64 -122 0
-122 -158 0
-18 -71 0
-18 -64 0
-18 -158 0
-64 -71 0
-71 -158 0
-64 -158 0
-40 -93 0
-40 -97 0
-16 -40 0
-40 -74 0
-93 -97 0
-16 -93 0
-74 -93 0
-16 -97 0
-74 -97 0
-16 -74 0
-32 -82 0
-82 -103 0
-36 -82 0
-82 -121 0
-32 -103 0
-32 -36 0
-32 -121 0
-36 -103 0
-103 -121 0
-36 -121 0
-44 -151 0
-120 -151 0
-15 -151 0
-14 -151 0
-44 -120 0
-15 -44 0
-14 -44 0
-15 -120 0
-14 -120 0
-14 -15 0
-13 -87 0
-87 -146 0
-12 -87 0
-87 -147 0
-13 -146 0
-12 -13 0
-13 -147 0
-12 -146 0
-146 -147 0
-12 -147 0
-40 -122 0
-82 -122 0
-122 -151 0
-87 -122 0
-40 -82 0
-40 -151 0
-40 -87 0
-82 -151 0
-82 -87 0
-87 -151 0
-18 -93 0
-18 -32 0
-18 -44 0
-13 -18 0
-32 -93 0
-44 -93 0
-13 -93 0
-32 -44 0
-13 -32 0
-13 -44 0
-71 -97 0
-71 -103 0
-71 -120 0
-71 -146 0
-97 -103 0
-97 -120 0
-97 -146 0
-103 -120 0
-103 -146 0
-120 -146 0
-16 -64 0
-36 -64 0
-15 -64 0
-12 -64 0
-16 -36 0
-15 -16 0
-12 -16 0
-15 -36 0
-12 -36 0
-12 -15 0
-74 -158 0
-121 -158 0
-14 -158 0
-147 -158 0
-74 -121 0
-14 -74 0
-74 -147 0
-14 -121 0
-121 -147 0
-14 -147 0
-11 -68 0
-11 -56 0
-11 -143 0
-11 -47 0
-56 -68 0
-68 -143 0
-47 -68 0
-56 -143 0
-47 -56 0
-47 -143 0
-49 -131 0
-131 -136 0
-10 -131 0
-94 -131 0
-49 -136 0
-10 -49 0
-49 -94 0
-10 -136 0
-94 -136 0
-10 -94 0
-9 -69 0
-29 -69 0
-51 -69 0
-8 -69 0
-9 -29 0
-9 -51 0
-8 -9 0
-29 -51 0
-8 -29 0
-8 -51 0
-27 -104 0
-27 -107 0
-27 -112 0
-27 -124 0
-104 -107 0
-104 -112 0
-104 -124 0
-107 -112 0
-107 -124 0
-112 -124 0
-37 -123 0
-17 -37 0
-37 -70 0
-7 -37 0
-17 -123 0
-70 -123 0
-7 -123 0
-17 -70 0
-7 -17 0
-7 -70 0
-11 -131 0
-11 -69 0
-11 -27 0
-11 -37 0
-69 -131 0
-27 -131 0
-37 -131 0
-27 -69 0
-37 -69 0
-27 -37 0
-49 -68 0
-9 -68 0
-68 -104 0
-68 -123 0
-9 -49 0
-49 -104 0
-49 -123 0
-9 -104 0
-9 -123 0
-104 -123 0
-56 -136 0
-29 -56 0
-56 -107 0
-17 -56 0
-29 -136 0
-107 -136 0
-17 -136 0
-29 -107 0
-17 -29 0
-17 -107 0
-10 -143 0
-51 -143 0
-112 -143 0
-70 -143 0
-10 -51 0
-10 -112 0
-10 -70 0
-51 -112 0
-51 -70 0
-70 -112 0
-47 -94 0
-8 -47 0
-47 -124 0
-7 -47 0
-8 -94 0
-94 -124 0
-7 -94 0
-8 -124 0
-7 -8 0
-7 -124 0
-6 -55 0
-55 -79 0
-45 -55 0
-55 -139 0
-6 -79 0
-6 -45 0
-6 -139 0
-45 -79 0
-79 -139 0
-45 -139 0
-5 -41 0
-5 -98 0
-5 -95 0
-5 -109 0
-41 -98 0
-41 -95 0
-41 -109 0
-95 -98 0
-98 -109 0
-95 -109 0
-30 -77 0
-4 -77 0
-77 -134 0
-77 -135 0
-4 -30 0
-30 -134 0
-30 -135 0
-4 -134 0
-4 -135 0
-134 -135 0
-96 -108 0
-96 -113 0
-96 -125 0
-3 -96 0
-108 -113 0
-108 -125 0
-3 -108 0
-113 -125 0
-3 -113 0
-3 -125 0
-46 -144 0
-2 -144 0
-33 -144 0
-1 -144 0
-2 -46 0
-33 -46 0
-1 -46 0
-2 -33 0
-1 -2 0
-1 -33 0
-5 -55 0
-55 -77 0
-55 -96 0
-55 -144 0
-5 -77 0
-5 -96 0
-5 -144 0
-77 -96 0
-77 -144 0
-96 -144 0
-6 -41 0
-6 -30 0
-6 -108 0
-6 -46 0
-30 -41 0
-41 -108 0
-41 -46 0
-30 -108 0
-30 -46 0
-46 -108 0
-79 -98 0
-4 -79 0
-79 -113 0
-2 -79 0
-4 -98 0
-98 -113 0
-2 -98 0
-4 -113 0
-2 -4 0
-2 -113 0
-45 -95 0
-45 -134 0
-45 -125 0
-33 -45 0
-95 -134 0
-95 -125 0
-33 -95 0
-125 -134 0
-33 -134 0
-33 -125 0
-109 -139 0
-135 -139 0
-3 -139 0
-1 -139 0
-109 -135 0
-3 -109 0
-1 -109 0
-3 -135 0
-1 -135 0
-1 -3 0
